8654
1 1 0 0 1 1 0 0 1 1 0 0 1 1 1 0 0 0 0 0 
0 0 0 0 0 0 0 1 1 1 4 4 1 1 13 13 8 13 9 4 13 14 4 4 4 4 4 4 14 5 5 5 5 5 5 5 5 5 0 0 4 4 8 12 13 14 13 13 13 4 8 8 4 14 13 5 5 0 9 9 12 12 0 13 1 13 12 12 9 13 13 12 13 13 14 14 8 5 9 13 